10	5
0	2	2	1
1	1	5
2	3	8	9	10
3	2	8	10
4	1	6
5	1	4
6	2	9	3
7	1	11
8	1	11
9	1	11
10	1	11
11	0
0	0	0	0	0	0	0
1	8	2	5	1	1	4
2	6	2	5	1	2	2
3	5	1	1	4	4	3
4	8	3	4	4	3	4
5	2	1	5	2	5	5
6	3	3	4	2	1	3
7	4	3	4	3	4	3
8	5	1	1	1	1	5
9	10	1	4	3	3	2
10	5	1	4	5	5	4
11	0	0	0	0	0	0
4	9	6	7	7
